
Gurobi 11.0.3 (linux64) logging started Mon Aug 25 15:12:59 2025

Set parameter LogFile to value "/home/yihong/Coding/OR_SUC/SUC_epstheta_results_bigM100000_thread4/case24_ieee_rts_theta0.1_epsilon0.1_gurobi_seed290000_num_gen100_N_WDR50_load_scaling_factor1_proposed_theta_T14quadra_cost_bc1.01.txt"
Set parameter TimeLimit to value 3600
Gurobi Optimizer version 11.0.3 build v11.0.3rc0 (linux64 - "Ubuntu 20.04.6 LTS")

CPU model: AMD EPYC 7532 32-Core Processor, instruction set [SSE2|AVX|AVX2]
Thread count: 64 physical cores, 128 logical processors, using up to 4 threads

Academic license 2399124 - for non-commercial use only - registered to yi___@ed.ac.uk
Optimize a model with 33318 rows, 17411 columns and 766758 nonzeros
Model fingerprint: 0x872334a1
Model has 1400 quadratic constraints
Variable types: 16011 continuous, 1400 integer (1400 binary)
Coefficient statistics:
  Matrix range     [3e-04, 2e+03]
  QMatrix range    [2e-03, 8e-03]
  QLMatrix range   [8e-02, 6e+01]
  Objective range  [1e+00, 1e+00]
  Bounds range     [1e+00, 1e+00]
  RHS range        [1e+00, 9e+03]
Presolve removed 27484 rows and 7562 columns
Presolve time: 0.23s
Presolved: 5834 rows, 9849 columns, 33482 nonzeros
Presolved model has 1400 quadratic constraint(s)
Variable types: 8449 continuous, 1400 integer (1400 binary)

Root relaxation: objective 1.687104e+04, 4686 iterations, 0.11 seconds (0.15 work units)

    Nodes    |    Current Node    |     Objective Bounds      |     Work
 Expl Unexpl |  Obj  Depth IntInf | Incumbent    BestBd   Gap | It/Node Time

H    0     0                    299425.29580 16871.0410  94.4%     -    0s
*    0     0               0    299425.29580 16871.0410  94.4%     -    0s
     0     0 113912.155    0  537 299425.296 113912.155  62.0%     -    0s
     0     0 274644.315    0  124 299425.296 274644.315  8.28%     -    1s
     0     0 274657.270    0   17 299425.296 274657.270  8.27%     -    1s
     0     0 274755.912    0   16 299425.296 274755.912  8.24%     -    1s
     0     0 274757.992    0   15 299425.296 274757.992  8.24%     -    1s
     0     0 274757.992    0   15 299425.296 274757.992  8.24%     -    1s
     0     2 274757.992    0   15 299425.296 274757.992  8.24%     -    2s
H  257   283                    274947.63850 274768.259  0.07%  11.2    3s
*  257   283              50    274947.63850 274768.259  0.07%  11.3    3s

Cutting planes:
  Gomory: 61
  Implied bound: 182
  MIR: 10
  Flow cover: 112
  RLT: 243
  Relax-and-lift: 118

Explored 291 nodes (16012 simplex iterations) in 3.95 seconds (3.74 work units)
Thread count was 4 (of 128 available processors)

Solution count 3: 274948 274948 299425 

Optimal solution found (tolerance 1.00e-03)
Warning: max constraint violation (1.9706e-07) exceeds tolerance
Best objective 2.749476384959e+05, best bound 2.747682588294e+05, gap 0.0652%

Gurobi 11.0.3 (linux64) logging started Mon Aug 25 15:13:04 2025

Set parameter LogFile to value "/home/yihong/Coding/OR_SUC/SUC_epstheta_results_bigM100000_thread4/case24_ieee_rts_theta0.1_epsilon0.1_gurobi_seed290000_num_gen100_N_WDR50_load_scaling_factor1_proposed_theta_T14quadra_cost_bc1.01.txt"
Set parameter TimeLimit to value 3600
Gurobi Optimizer version 11.0.3 build v11.0.3rc0 (linux64 - "Ubuntu 20.04.6 LTS")

CPU model: AMD EPYC 7532 32-Core Processor, instruction set [SSE2|AVX|AVX2]
Thread count: 64 physical cores, 128 logical processors, using up to 4 threads

Academic license 2399124 - for non-commercial use only - registered to yi___@ed.ac.uk
Optimize a model with 33319 rows, 17412 columns and 771099 nonzeros
Model fingerprint: 0x80c32376
Model has 1400 quadratic constraints
Variable types: 16012 continuous, 1400 integer (1400 binary)
Coefficient statistics:
  Matrix range     [3e-04, 2e+03]
  QMatrix range    [2e-03, 8e-03]
  QLMatrix range   [8e-02, 6e+01]
  Objective range  [1e+00, 1e+00]
  Bounds range     [1e-01, 1e+00]
  RHS range        [4e-01, 3e+05]
Presolve removed 24858 rows and 6243 columns
Presolve time: 0.33s
Presolved: 8461 rows, 11169 columns, 45250 nonzeros
Presolved model has 1400 quadratic constraint(s)
Variable types: 9767 continuous, 1402 integer (1402 binary)

Root relaxation: objective 1.017491e+01, 12927 iterations, 0.64 seconds (0.78 work units)

    Nodes    |    Current Node    |     Objective Bounds      |     Work
 Expl Unexpl |  Obj  Depth IntInf | Incumbent    BestBd   Gap | It/Node Time

     0     0   10.17491    0   93          -   10.17491      -     -    1s
     0     0    5.06788    0   19          -    5.06788      -     -    3s
     0     0    5.06770    0   17          -    5.06770      -     -    3s
     0     0    0.49119    0   15          -    0.49119      -     -    3s
     0     0    0.49090    0   15          -    0.49090      -     -    3s
     0     0    0.48634    0   14          -    0.48634      -     -    3s
     0     0    0.48609    0   14          -    0.48609      -     -    4s
     0     0    0.48609    0   14          -    0.48609      -     -    4s
     0     0    0.48606    0   14          -    0.48606      -     -    4s
H    0     0                       0.4796339    0.48606  1.34%     -    4s
     0     2    0.48606    0   14    0.47963    0.48606  1.34%     -    5s
H  133    40                       0.4802084    0.48159  0.29%  17.4    8s
*  133    40              39       0.4802084    0.48159  0.29%  17.5    8s
H  196    16                       0.4807471    0.48130  0.12%  15.9    8s
*  196    16              37       0.4807471    0.48130  0.12%  16.0    8s

Cutting planes:
  Gomory: 9
  Implied bound: 87
  MIR: 8
  Flow cover: 5
  RLT: 33

Explored 225 nodes (26076 simplex iterations) in 9.32 seconds (10.92 work units)
Thread count was 4 (of 128 available processors)

Solution count 4: 0.480747 0.480747 0.480208 0.479634 

Optimal solution found (tolerance 1.00e-03)
Warning: max constraint violation (1.2405e-07) exceeds tolerance
Best objective 4.807470888014e-01, best bound 4.809011472235e-01, gap 0.0320%
